SDVRP instances/custom_instances/p02_13_split0.vrp
NAME:p02_13_split
BEST_KNOWN: 0
COMMENT: 0
DIMENSION: 358
CAPACITY: 140
EDGE_WEIGHT_FORMAT: FUNCTION
EDGE_WEIGHT_TYPE: EXACT_2D
NODE_COORD_SECTION
1 0.00000 0.00000
2 -9 35
3 -9 35
4 -9 35
5 -9 35
6 20 8
7 20 8
8 20 8
9 20 8
10 20 8
11 20 8
12 20 8
13 20 8
14 34 48
15 34 48
16 34 48
17 34 48
18 34 48
19 -46 34
20 -46 34
21 -46 34
22 10 -47
23 10 -47
24 10 -47
25 10 -47
26 35 -22
27 35 -22
28 35 -22
29 45 -40
30 45 -40
31 45 -40
32 -41 46
33 -41 46
34 -41 46
35 -41 46
36 -41 46
37 -18 17
38 -18 17
39 -18 17
40 -18 17
41 -18 17
42 -15 8
43 -15 8
44 39 -33
45 39 -33
46 39 -33
47 39 -33
48 39 -33
49 -10 -34
50 -10 -34
51 -10 -34
52 -10 -34
53 24 7
54 24 7
55 24 7
56 1 -22
57 1 -22
58 1 -22
59 1 -22
60 1 -22
61 1 -22
62 50 -8
63 50 -8
64 50 -8
65 50 -8
66 50 -8
67 32 -26
68 32 -26
69 32 -26
70 11 -25
71 11 -25
72 47 -16
73 47 -16
74 47 -16
75 6 -17
76 6 -17
77 6 -17
78 6 -17
79 6 -17
80 6 -17
81 6 -17
82 5 50
83 5 50
84 5 50
85 5 50
86 5 50
87 5 50
88 5 50
89 5 50
90 -15 -12
91 -4 7
92 -4 7
93 -4 7
94 -4 7
95 -31 15
96 -31 15
97 -31 15
98 -31 15
99 -31 15
100 -31 15
101 22 15
102 22 15
103 22 15
104 22 15
105 22 15
106 22 15
107 22 15
108 -48 5
109 -48 5
110 -48 5
111 -48 5
112 30 -10
113 30 -10
114 30 -10
115 30 -10
116 30 -10
117 30 -10
118 -37 -1
119 -37 -1
120 -37 -1
121 47 -15
122 47 -15
123 47 -15
124 47 -15
125 47 -15
126 50 8
127 50 8
128 50 8
129 -14 -5
130 -14 -5
131 -14 -5
132 -14 -5
133 -14 -5
134 28 15
135 28 15
136 28 15
137 28 15
138 28 15
139 -10 35
140 -10 35
141 -10 35
142 -10 35
143 -10 35
144 -10 35
145 -10 -32
146 -10 -32
147 -10 -32
148 -26 30
149 -26 30
150 -24 32
151 -24 32
152 -36 24
153 -36 24
154 -36 24
155 -36 24
156 -36 24
157 -36 24
158 -36 24
159 -36 24
160 24 -17
161 24 -17
162 31 -1
163 31 -1
164 31 -1
165 31 -1
166 31 -1
167 31 -1
168 -18 -15
169 -18 -15
170 -18 -15
171 -18 -15
172 -18 -15
173 -25 24
174 -25 24
175 -26 -23
176 -26 -23
177 -26 -23
178 -26 -23
179 -26 -23
180 -1 0
181 -1 0
182 -1 0
183 -1 0
184 -1 0
185 -1 0
186 -1 0
187 -49 -18
188 -49 -18
189 -49 -18
190 -49 -18
191 -49 -18
192 -47 -12
193 -47 -12
194 -2 -33
195 -2 -33
196 -2 -33
197 -2 -33
198 -2 -33
199 -2 -33
200 -2 -33
201 28 40
202 28 40
203 28 40
204 28 40
205 28 40
206 28 40
207 28 40
208 28 40
209 -40 -14
210 -40 -14
211 -42 19
212 -42 19
213 -42 19
214 -42 19
215 -42 19
216 7 -16
217 7 -16
218 -19 9
219 -27 -4
220 -27 -4
221 -27 -4
222 -27 -4
223 -27 -4
224 -27 -4
225 -8 29
226 -8 29
227 -8 29
228 -8 29
229 -8 29
230 -8 29
231 -8 29
232 -8 29
233 21 16
234 21 16
235 21 16
236 21 16
237 21 16
238 21 16
239 21 16
240 41 -34
241 41 -34
242 41 -34
243 41 -34
244 41 -34
245 41 -34
246 36 -47
247 36 -47
248 36 -47
249 -21 -21
250 -21 -21
251 -21 -21
252 -21 -21
253 6 23
254 6 23
255 6 23
256 6 23
257 6 23
258 6 23
259 6 23
260 6 23
261 -8 24
262 -8 24
263 -8 24
264 -8 24
265 -8 24
266 -8 24
267 -31 32
268 -31 32
269 -31 32
270 -31 32
271 -34 25
272 -34 25
273 -34 25
274 -34 25
275 -34 25
276 -34 25
277 32 -19
278 32 -19
279 32 -19
280 32 -19
281 -31 -37
282 -31 -37
283 -31 -37
284 -31 -37
285 -31 -37
286 -13 -45
287 -13 -45
288 -13 -45
289 -13 -45
290 -13 -45
291 -12 -9
292 -12 -9
293 -12 -9
294 -12 -9
295 -12 -9
296 -12 -9
297 2 21
298 2 21
299 -11 -40
300 -11 -40
301 -11 -40
302 -11 -40
303 -11 -40
304 -11 -40
305 -11 -40
306 -47 3
307 -47 3
308 -47 3
309 -47 3
310 -47 3
311 -47 3
312 -47 3
313 -8 -46
314 -8 -46
315 -8 -46
316 -4 30
317 -4 30
318 -4 30
319 -4 30
320 -4 30
321 -4 30
322 -4 30
323 -4 30
324 -4 30
325 -27 18
326 -27 18
327 -27 18
328 -27 18
329 -27 18
330 -27 18
331 -27 18
332 -27 18
333 -27 18
334 37 -9
335 37 -9
336 37 -9
337 37 -9
338 -36 -25
339 -36 -25
340 -36 -25
341 -36 -25
342 -36 -25
343 -36 -25
344 40 42
345 40 42
346 40 42
347 40 42
348 -2 -28
349 -2 -28
350 -2 -28
351 -2 -28
352 -2 -28
353 -2 -28
354 -2 -28
355 -1 -24
356 -1 -24
357 -1 -24
358 -1 -24
DEMAND_SECTION
1 0
2 28
3 14
4 1
5 1
6 28
7 28
8 7
9 1
10 1
11 1
12 1
13 1
14 28
15 14
16 7
17 1
18 1
19 28
20 28
21 14
22 28
23 7
24 1
25 1
26 28
27 1
28 1
29 28
30 28
31 7
32 28
33 14
34 7
35 1
36 1
37 28
38 14
39 7
40 1
41 1
42 28
43 7
44 14
45 1
46 1
47 1
48 1
49 28
50 28
51 7
52 1
53 28
54 28
55 7
56 28
57 28
58 7
59 1
60 1
61 1
62 14
63 1
64 1
65 1
66 1
67 28
68 28
69 7
70 28
71 7
72 28
73 7
74 1
75 28
76 14
77 1
78 1
79 1
80 1
81 1
82 28
83 14
84 7
85 1
86 1
87 1
88 1
89 1
90 28
91 14
92 7
93 1
94 1
95 28
96 28
97 1
98 1
99 1
100 1
101 14
102 7
103 1
104 1
105 1
106 1
107 1
108 14
109 1
110 1
111 1
112 14
113 7
114 1
115 1
116 1
117 1
118 28
119 1
120 1
121 28
122 28
123 1
124 1
125 1
126 28
127 14
128 7
129 14
130 1
131 1
132 1
133 1
134 28
135 1
136 1
137 1
138 1
139 28
140 14
141 1
142 1
143 1
144 1
145 28
146 7
147 1
148 14
149 7
150 28
151 14
152 28
153 14
154 1
155 1
156 1
157 1
158 1
159 1
160 28
161 7
162 28
163 28
164 7
165 1
166 1
167 1
168 28
169 14
170 7
171 1
172 1
173 28
174 28
175 28
176 14
177 7
178 1
179 1
180 14
181 1
182 1
183 1
184 1
185 1
186 1
187 28
188 7
189 1
190 1
191 1
192 28
193 1
194 14
195 7
196 1
197 1
198 1
199 1
200 1
201 28
202 14
203 1
204 1
205 1
206 1
207 1
208 1
209 28
210 7
211 14
212 7
213 1
214 1
215 1
216 28
217 1
218 28
219 14
220 7
221 1
222 1
223 1
224 1
225 28
226 28
227 1
228 1
229 1
230 1
231 1
232 1
233 28
234 28
235 7
236 1
237 1
238 1
239 1
240 14
241 1
242 1
243 1
244 1
245 1
246 28
247 28
248 14
249 28
250 7
251 1
252 1
253 14
254 7
255 1
256 1
257 1
258 1
259 1
260 1
261 14
262 1
263 1
264 1
265 1
266 1
267 28
268 7
269 1
270 1
271 28
272 7
273 1
274 1
275 1
276 1
277 28
278 7
279 1
280 1
281 28
282 14
283 7
284 1
285 1
286 14
287 1
288 1
289 1
290 1
291 28
292 28
293 7
294 1
295 1
296 1
297 28
298 14
299 28
300 1
301 1
302 1
303 1
304 1
305 1
306 28
307 14
308 1
309 1
310 1
311 1
312 1
313 28
314 14
315 1
316 28
317 14
318 7
319 1
320 1
321 1
322 1
323 1
324 1
325 28
326 14
327 7
328 1
329 1
330 1
331 1
332 1
333 1
334 28
335 28
336 7
337 1
338 28
339 28
340 7
341 1
342 1
343 1
344 28
345 7
346 1
347 1
348 14
349 7
350 1
351 1
352 1
353 1
354 1
355 28
356 14
357 7
358 1
DEPOT_SECTION
1
-1
EOF