SDVRP instances/custom_instances/p02_13_split0.sol
357 -8 6 10 7 11 5 12 9 54 52 53 -18 20 19 32 31 35 34 33 267 269 40 39 38 -21 24 22 23 313 314 312 289 287 286 288 285 303 300 304 302 298 299 301 -36 37 173 172 149 150 -46 47 45 44 29 30 28 245 247 246 -60 58 55 59 57 56 347 351 355 357 354 356 -63 62 65 64 61 120 122 123 124 121 73 71 72 114 116 112 111 115 113 -67 66 68 43 244 242 241 239 243 240 25 27 26 278 277 279 -75 76 79 78 77 80 74 69 70 215 216 -88 82 83 81 87 86 84 85 321 317 319 315 316 323 320 318 322 228 225 261 264 -89 168 170 169 171 167 249 250 248 251 -90 92 93 91 296 297 259 253 254 255 257 258 252 256 -98 99 96 211 213 210 212 214 108 107 110 109 309 307 308 306 311 305 310 118 117 119 221 222 220 218 -126 125 127 163 165 164 161 162 166 -134 135 133 137 136 103 101 104 105 102 100 106 235 237 233 238 234 232 236 -144 146 145 50 51 48 49 194 197 198 196 193 195 199 352 348 349 350 353 -148 147 266 268 271 270 273 275 274 272 157 156 151 154 158 152 153 155 -160 159 276 333 334 336 335 -174 190 188 189 186 187 191 192 209 208 223 219 -175 178 176 177 338 341 339 337 340 342 283 282 284 280 281 -182 185 181 179 184 180 183 42 41 131 128 130 132 129 291 290 294 293 295 292 -206 200 207 205 202 201 203 204 17 14 16 13 15 344 346 345 343 -217 97 94 95 324 325 330 328 332 329 327 326 331 -231 227 226 224 229 230 2 1 4 3 140 142 141 139 143 138 265 262 263 260 0 





OBJ=
2145.514
BEST_KNOWN=
0.000